
Log started (V12.10.0.0) Fri Apr  2 11:16:53 2021

Warning, line 554: Name 's80' does not exist.
Warning, line 555: Name 's98' does not exist.
Warning, line 556: Name 's253' does not exist.
Warning, line 557: Name 's142' does not exist.
Warning, line 558: Name 's97' does not exist.
Warning, line 564: Name 's52' does not exist.
Warning, line 567: Name 's171' does not exist.

Problem 'asset.lp' read.
Read time = 0.00 sec. (0.04 ticks)
New value for default parallel thread count: 1
New value for time limit in seconds: 400
Version identifier: 12.10.0.0 | 2019-11-26 | 843d4de
CPXPARAM_Threads                                 1
CPXPARAM_TimeLimit                               400
Found incumbent of value 0.000000 after 0.00 sec. (0.01 ticks)
Tried aggregator 4 times.
MIP Presolve eliminated 352 rows and 322 columns.
MIP Presolve added 2 rows and 2 columns.
MIP Presolve modified 259 coefficients.
Aggregator did 15 substitutions.
Reduced MIP has 17 rows, 23 columns, and 52 nonzeros.
Reduced MIP has 17 binaries, 5 generals, 0 SOSs, and 0 indicators.
Presolve time = 0.00 sec. (0.59 ticks)
Probing fixed 2 vars, tightened 1 bounds.
Probing time = 0.00 sec. (0.02 ticks)
Cover probing fixed 0 vars, tightened 2 bounds.
Tried aggregator 1 time.
MIP Presolve eliminated 11 rows and 10 columns.
MIP Presolve added 2 rows and 2 columns.
Reduced MIP has 8 rows, 15 columns, and 26 nonzeros.
Reduced MIP has 10 binaries, 5 generals, 0 SOSs, and 0 indicators.
Presolve time = 0.00 sec. (0.03 ticks)
Probing time = 0.00 sec. (0.01 ticks)
Tried aggregator 1 time.
Detecting symmetries...
MIP Presolve eliminated 2 rows and 2 columns.
MIP Presolve added 2 rows and 2 columns.
Reduced MIP has 8 rows, 15 columns, and 26 nonzeros.
Reduced MIP has 10 binaries, 5 generals, 0 SOSs, and 0 indicators.
Presolve time = 0.00 sec. (0.02 ticks)
Probing time = 0.00 sec. (0.01 ticks)
Clique table members: 9.
MIP emphasis: balance optimality and feasibility.
MIP search method: dynamic search.
Parallel mode: none, using 1 thread.
Root relaxation solution time = 0.00 sec. (0.01 ticks)

        Nodes                                         Cuts/
   Node  Left     Objective  IInf  Best Integer    Best Bound    ItCnt     Gap

*     0+    0                            0.0000       32.0000              --- 
*     0     0      integral     0       28.0000       28.0000        0    0.00%
Elapsed time = 0.00 sec. (0.77 ticks, tree = 0.00 MB, solutions = 1)

Root node processing (before b&c):
  Real time             =    0.00 sec. (0.78 ticks)
Sequential b&c:
  Real time             =    0.00 sec. (0.00 ticks)
                          ------------
Total (root+branch&cut) =    0.00 sec. (0.78 ticks)

Solution pool: 2 solutions saved.

MIP - Integer optimal solution:  Objective =  2.8000000000e+01
Solution time =    0.00 sec.  Iterations = 0  Nodes = 0
Deterministic time = 0.78 ticks  (282.63 ticks/sec)


Incumbent solution
Variable Name           Solution Value
F                            28.000000
y205                          1.000000
y216                          1.000000
y38                           1.000000
y234                          1.000000
x14x216x2                     1.000000
x14x38x2                      1.000000
x268x205x2                    1.000000
x224x205x2                    1.000000
x138x216x3                    1.000000
x138x38x3                     1.000000
x91x234x3                     2.000000
x205x0x2                      2.000000
x216x0x2                      1.000000
x216x0x3                      1.000000
x38x0x2                       1.000000
x38x0x3                       1.000000
x234x0x3                      2.000000
s193                          6.672260
s230                          7.960000
s159                          7.980000
s240                          7.980000
s238                          8.020000
s250                          8.020000
s75                           8.110000
s199                          8.110000
s45                           8.200000
s216                          9.289273
s257                          9.350000
s38                           9.400000
s234                          9.420000
z193z234z3                    1.000000
s14                           7.654870
s205                          9.270000
z14z205z2                     1.000000
s223                          8.290000
z14z216z2                     1.000000
z14z38z2                      1.000000
s138                          7.585670
z138z216z3                    1.000000
z138z38z3                     1.000000
z138z234z3                    1.000000
s201                          7.864040
z201z205z2                    1.000000
z201z234z3                    1.000000
s268                          7.925390
z268z205z2                    1.000000
s91                           7.977020
z91z234z3                     1.000000
s224                          8.013370
z224z205z2                    1.000000
s130                          8.040000
s133                          8.090000
s83                           8.130000
s269                          8.160000
s68                           8.270000
s94                           8.000000
s222                          8.030000
s152                          8.270000
s271                          8.030000
All other variables in the range 1-360 are 0.
